knapPI_6_1000_1000_558
n 1000
c 487212
z 487212
time 0.2
1,943,943,1
2,567,567,1
3,234,234,1
4,418,418,1
5,234,234,1
6,1,1,1
7,894,894,1
8,642,642,1
9,494,494,1
10,398,398,1
11,718,718,1
12,507,507,1
13,272,272,1
14,465,465,1
15,896,896,1
16,469,469,1
17,483,483,1
18,879,879,1
19,345,345,1
20,848,848,1
21,1000,1000,1
22,296,296,1
23,874,874,1
24,503,503,1
25,548,548,1
26,812,812,1
27,36,36,1
28,980,980,1
29,306,306,1
30,148,148,1
31,825,825,1
32,172,172,1
33,89,89,1
34,537,537,1
35,330,330,1
36,483,483,1
37,355,355,1
38,336,336,1
39,830,830,1
40,388,388,1
41,104,104,1
42,95,95,1
43,87,87,1
44,226,226,1
45,40,40,1
46,259,259,1
47,936,936,1
48,474,474,1
49,71,71,1
50,1,1,1
51,111,111,1
52,521,521,1
53,10,10,1
54,951,951,1
55,671,671,1
56,374,374,1
57,659,659,1
58,319,319,1
59,474,474,1
60,273,273,1
61,417,417,1
62,886,886,1
63,13,13,1
64,772,772,1
65,480,480,1
66,939,939,1
67,153,153,1
68,583,583,1
69,380,380,1
70,589,589,1
71,397,397,1
72,928,928,1
73,951,951,1
74,311,311,1
75,825,825,1
76,405,405,1
77,939,939,1
78,844,844,1
79,729,729,1
80,468,468,1
81,759,759,1
82,260,260,1
83,225,225,1
84,89,89,1
85,816,816,1
86,577,577,1
87,563,563,1
88,4,4,1
89,641,641,1
90,459,459,1
91,403,403,1
92,554,554,1
93,544,544,1
94,433,433,1
95,567,567,1
96,274,274,1
97,161,161,1
98,185,185,1
99,880,880,1
100,375,375,1
101,997,997,1
102,430,430,1
103,94,94,1
104,95,95,1
105,800,800,1
106,825,825,1
107,976,976,1
108,391,391,1
109,897,897,1
110,671,671,1
111,618,618,1
112,823,823,1
113,964,964,1
114,828,828,1
115,596,596,1
116,518,518,1
117,927,927,1
118,24,24,1
119,196,196,1
120,738,738,1
121,829,829,1
122,89,89,1
123,714,714,1
124,349,349,1
125,175,175,1
126,585,585,1
127,219,219,1
128,320,320,1
129,895,895,1
130,806,806,1
131,812,812,1
132,235,235,1
133,483,483,1
134,583,583,1
135,344,344,1
136,112,112,1
137,709,709,1
138,629,629,1
139,902,902,1
140,442,442,1
141,207,207,1
142,372,372,1
143,129,129,1
144,872,872,1
145,540,540,1
146,242,242,1
147,724,724,1
148,111,111,1
149,570,570,1
150,581,581,1
151,346,346,1
152,111,111,1
153,810,810,1
154,515,515,1
155,689,689,1
156,502,502,1
157,916,916,1
158,686,686,1
159,276,276,1
160,433,433,1
161,450,450,1
162,715,715,1
163,861,861,1
164,80,80,1
165,870,870,1
166,526,526,1
167,988,988,1
168,398,398,1
169,276,276,1
170,876,876,1
171,714,714,1
172,104,104,1
173,638,638,1
174,253,253,1
175,938,938,1
176,623,623,1
177,22,22,1
178,837,837,1
179,316,316,1
180,43,43,1
181,87,87,1
182,745,745,1
183,147,147,1
184,637,637,1
185,999,999,1
186,797,797,1
187,936,936,1
188,784,784,1
189,382,382,1
190,179,179,1
191,325,325,1
192,112,112,1
193,847,847,1
194,156,156,1
195,285,285,1
196,815,815,1
197,802,802,1
198,50,50,1
199,198,198,1
200,456,456,1
201,293,293,1
202,811,811,1
203,986,986,1
204,398,398,1
205,414,414,1
206,766,766,1
207,101,101,1
208,325,325,1
209,306,306,1
210,658,658,1
211,351,351,1
212,868,868,1
213,624,624,1
214,174,174,1
215,848,848,1
216,533,533,1
217,724,724,1
218,554,554,1
219,141,141,1
220,504,504,1
221,959,959,1
222,130,130,1
223,755,755,1
224,430,430,1
225,64,64,1
226,42,42,1
227,716,716,1
228,395,395,1
229,176,176,1
230,672,672,1
231,659,659,1
232,908,908,1
233,202,202,1
234,413,413,1
235,794,794,1
236,415,415,1
237,64,64,1
238,452,452,1
239,949,949,1
240,459,459,1
241,2,2,1
242,852,852,1
243,209,209,1
244,782,782,1
245,996,996,1
246,696,696,1
247,822,822,1
248,816,816,1
249,376,376,1
250,174,174,1
251,39,39,1
252,980,980,1
253,821,821,1
254,578,578,1
255,26,26,1
256,37,37,1
257,822,822,1
258,235,235,1
259,173,173,1
260,935,935,1
261,805,805,1
262,182,182,1
263,481,481,1
264,178,178,1
265,719,719,1
266,915,915,1
267,117,117,1
268,101,101,1
269,677,677,1
270,469,469,1
271,114,114,1
272,841,841,1
273,707,707,1
274,713,713,1
275,317,317,1
276,893,893,1
277,974,974,1
278,908,908,1
279,612,612,1
280,575,575,1
281,945,945,1
282,112,112,1
283,986,986,1
284,466,466,1
285,942,942,1
286,553,553,1
287,577,577,1
288,774,774,1
289,78,78,1
290,434,434,1
291,148,148,1
292,871,871,1
293,122,122,1
294,781,781,1
295,343,343,1
296,796,796,1
297,323,323,1
298,686,686,1
299,707,707,1
300,861,861,1
301,822,822,1
302,321,321,1
303,210,210,1
304,115,115,1
305,740,740,1
306,620,620,1
307,463,463,1
308,396,396,1
309,275,275,1
310,581,581,1
311,861,861,1
312,527,527,1
313,928,928,1
314,101,101,1
315,707,707,1
316,285,285,1
317,981,981,1
318,814,814,1
319,47,47,1
320,90,90,1
321,820,820,1
322,604,604,1
323,924,924,1
324,5,5,1
325,821,821,1
326,311,311,1
327,788,788,1
328,749,749,1
329,595,595,1
330,95,95,1
331,206,206,1
332,919,919,1
333,513,513,1
334,338,338,1
335,990,990,1
336,335,335,1
337,242,242,1
338,322,322,1
339,59,59,1
340,742,742,1
341,542,542,1
342,548,548,1
343,404,404,1
344,577,577,1
345,882,882,1
346,9,9,1
347,454,454,1
348,290,290,1
349,410,410,1
350,548,548,1
351,721,721,1
352,185,185,1
353,926,926,1
354,340,340,1
355,117,117,1
356,809,809,1
357,134,134,1
358,121,121,1
359,611,611,1
360,731,731,1
361,435,435,1
362,325,325,1
363,454,454,1
364,734,734,1
365,237,237,1
366,739,739,1
367,138,138,1
368,567,567,1
369,145,145,1
370,170,170,1
371,494,494,1
372,316,316,1
373,944,944,1
374,21,21,1
375,797,797,1
376,237,237,1
377,743,743,1
378,954,954,1
379,583,583,1
380,365,365,1
381,623,623,1
382,61,61,1
383,244,244,1
384,227,227,1
385,707,707,1
386,46,46,1
387,935,935,1
388,122,122,1
389,722,722,1
390,982,982,1
391,935,935,1
392,4,4,1
393,700,700,1
394,203,203,1
395,268,268,1
396,734,734,1
397,893,893,1
398,610,610,1
399,301,301,1
400,699,699,1
401,409,409,1
402,642,642,1
403,205,205,1
404,63,63,1
405,801,801,1
406,284,284,1
407,939,939,1
408,950,950,1
409,744,744,1
410,582,582,1
411,60,60,1
412,580,580,1
413,925,925,1
414,428,428,1
415,514,514,1
416,195,195,1
417,310,310,1
418,869,869,1
419,271,271,1
420,235,235,1
421,282,282,1
422,794,794,1
423,2,2,1
424,14,14,1
425,82,82,1
426,890,890,1
427,436,436,1
428,831,831,1
429,3,3,1
430,250,250,1
431,973,973,1
432,866,866,1
433,793,793,1
434,938,938,1
435,997,997,1
436,925,925,1
437,242,242,1
438,99,99,1
439,375,375,1
440,68,68,1
441,333,333,1
442,156,156,1
443,644,644,1
444,844,844,1
445,316,316,1
446,269,269,1
447,377,377,1
448,747,747,1
449,964,964,1
450,280,280,1
451,796,796,1
452,679,679,1
453,579,579,1
454,893,893,1
455,354,354,1
456,972,972,1
457,967,967,1
458,154,154,1
459,17,17,1
460,573,573,1
461,763,763,1
462,969,969,1
463,229,229,1
464,879,879,1
465,530,530,1
466,767,767,1
467,978,978,1
468,595,595,1
469,517,517,1
470,89,89,1
471,182,182,1
472,532,532,1
473,465,465,1
474,862,862,1
475,90,90,1
476,735,735,1
477,511,511,1
478,923,923,1
479,577,577,1
480,959,959,1
481,820,820,1
482,504,504,1
483,365,365,1
484,559,559,1
485,125,125,1
486,117,117,1
487,302,302,1
488,465,465,1
489,418,418,1
490,373,373,1
491,10,10,1
492,411,411,1
493,449,449,1
494,575,575,1
495,606,606,1
496,457,457,1
497,899,899,1
498,785,785,1
499,821,821,1
500,878,878,1
501,210,210,1
502,97,97,1
503,162,162,1
504,380,380,1
505,789,789,1
506,933,933,1
507,996,996,1
508,673,673,1
509,572,572,1
510,661,661,1
511,548,548,1
512,620,620,1
513,403,403,1
514,537,537,1
515,130,130,1
516,117,117,1
517,400,400,1
518,750,750,1
519,811,811,1
520,702,702,1
521,473,473,1
522,799,799,1
523,733,733,1
524,479,479,1
525,346,346,1
526,37,37,1
527,212,212,1
528,399,399,1
529,508,508,1
530,586,586,1
531,279,279,1
532,881,881,1
533,991,991,1
534,579,579,1
535,342,342,1
536,587,587,1
537,708,708,1
538,507,507,1
539,557,557,1
540,773,773,1
541,748,748,1
542,886,886,1
543,437,437,1
544,999,999,1
545,24,24,1
546,176,176,1
547,34,34,1
548,166,166,1
549,173,173,1
550,744,744,1
551,101,101,1
552,832,832,1
553,469,469,1
554,299,299,1
555,389,389,1
556,827,827,1
557,375,375,1
558,148,148,1
559,272,272,1
560,877,877,1
561,766,766,1
562,506,506,1
563,164,164,1
564,168,168,1
565,433,433,1
566,266,266,1
567,849,849,1
568,878,878,1
569,851,851,1
570,506,506,1
571,261,261,1
572,932,932,1
573,624,624,1
574,207,207,1
575,276,276,1
576,361,361,1
577,236,236,1
578,267,267,1
579,255,255,1
580,74,74,1
581,509,509,1
582,210,210,1
583,159,159,1
584,332,332,1
585,349,349,1
586,496,496,1
587,227,227,1
588,904,904,1
589,197,197,1
590,49,49,1
591,350,350,1
592,79,79,1
593,884,884,1
594,105,105,1
595,1000,1000,1
596,438,438,1
597,139,139,1
598,667,667,1
599,586,586,1
600,81,81,1
601,909,909,1
602,298,298,1
603,425,425,1
604,954,954,1
605,149,149,1
606,480,480,1
607,741,741,1
608,33,33,1
609,924,924,1
610,827,827,1
611,661,661,1
612,191,191,1
613,869,869,1
614,524,524,1
615,233,233,1
616,493,493,1
617,35,35,1
618,167,167,1
619,539,539,1
620,178,178,1
621,186,186,1
622,419,419,1
623,930,930,1
624,724,724,1
625,993,993,1
626,745,745,1
627,497,497,1
628,668,668,1
629,648,648,1
630,481,481,1
631,570,570,1
632,394,394,1
633,185,185,1
634,166,166,1
635,740,740,1
636,393,393,1
637,376,376,1
638,545,545,1
639,250,250,1
640,103,103,1
641,270,270,1
642,964,964,1
643,700,700,1
644,931,931,1
645,904,904,1
646,861,861,1
647,792,792,1
648,409,409,1
649,359,359,1
650,121,121,1
651,956,956,1
652,266,266,1
653,581,581,1
654,275,275,1
655,442,442,1
656,910,910,1
657,403,403,1
658,342,342,1
659,793,793,1
660,269,269,1
661,728,728,1
662,379,379,1
663,329,329,1
664,227,227,1
665,374,374,1
666,914,914,1
667,327,327,1
668,270,270,1
669,42,42,1
670,857,857,1
671,182,182,1
672,526,526,1
673,766,766,1
674,348,348,1
675,384,384,1
676,191,191,1
677,668,668,1
678,682,682,1
679,672,672,1
680,708,708,1
681,325,325,1
682,807,807,1
683,242,242,1
684,106,106,1
685,134,134,1
686,889,889,1
687,820,820,1
688,138,138,1
689,90,90,1
690,397,397,1
691,866,866,1
692,478,478,1
693,545,545,1
694,569,569,1
695,742,742,1
696,31,31,1
697,592,592,1
698,275,275,1
699,80,80,1
700,963,963,1
701,883,883,1
702,904,904,1
703,163,163,1
704,460,460,1
705,813,813,1
706,790,790,1
707,885,885,1
708,628,628,1
709,436,436,1
710,785,785,1
711,722,722,1
712,679,679,1
713,777,777,1
714,460,460,1
715,207,207,1
716,915,915,1
717,23,23,1
718,753,753,1
719,110,110,1
720,716,716,1
721,86,86,1
722,154,154,1
723,542,542,1
724,487,487,1
725,364,364,1
726,171,171,1
727,616,616,1
728,937,937,1
729,653,653,1
730,987,987,1
731,67,67,1
732,542,542,1
733,248,248,1
734,180,180,1
735,505,505,1
736,25,25,1
737,82,82,1
738,764,764,1
739,517,517,1
740,502,502,1
741,479,479,1
742,244,244,1
743,560,560,1
744,589,589,1
745,435,435,1
746,348,348,1
747,845,845,1
748,918,918,1
749,422,422,1
750,815,815,1
751,402,402,1
752,190,190,1
753,580,580,1
754,940,940,1
755,678,678,1
756,419,419,1
757,666,666,1
758,843,843,1
759,545,545,1
760,408,408,1
761,609,609,1
762,736,736,1
763,962,962,1
764,598,598,1
765,636,636,1
766,40,40,1
767,248,248,1
768,385,385,1
769,924,924,1
770,222,222,1
771,893,893,1
772,729,729,1
773,6,6,1
774,939,939,1
775,891,891,1
776,849,849,1
777,368,368,1
778,699,699,1
779,716,716,1
780,747,747,1
781,129,129,1
782,180,180,1
783,165,165,1
784,87,87,1
785,475,475,1
786,153,153,1
787,105,105,1
788,211,211,1
789,684,684,1
790,903,903,1
791,787,787,1
792,761,761,1
793,531,531,1
794,504,504,1
795,494,494,1
796,542,542,1
797,531,531,1
798,232,232,1
799,305,305,1
800,501,501,1
801,458,458,1
802,626,626,1
803,478,478,1
804,792,792,1
805,305,305,1
806,597,597,1
807,751,751,1
808,1,1,1
809,60,60,1
810,371,371,1
811,881,881,1
812,178,178,1
813,417,417,1
814,666,666,1
815,176,176,1
816,848,848,1
817,796,796,1
818,654,654,1
819,520,520,1
820,316,316,1
821,953,953,1
822,275,275,1
823,165,165,1
824,392,392,1
825,675,675,1
826,898,898,1
827,266,266,1
828,725,725,1
829,268,268,1
830,424,424,1
831,942,942,1
832,247,247,1
833,150,150,1
834,109,109,1
835,722,722,1
836,202,202,1
837,494,494,1
838,240,240,1
839,520,520,1
840,822,822,1
841,572,572,1
842,310,310,1
843,890,890,1
844,763,763,1
845,155,155,1
846,76,76,1
847,531,531,1
848,422,422,1
849,964,964,1
850,846,846,1
851,482,482,1
852,269,269,1
853,235,235,1
854,837,837,1
855,479,479,1
856,858,858,1
857,414,414,1
858,829,829,1
859,234,234,1
860,264,264,1
861,666,666,1
862,496,496,1
863,381,381,1
864,556,556,1
865,351,351,1
866,756,756,1
867,630,630,1
868,246,246,1
869,30,30,1
870,682,682,1
871,841,841,1
872,100,100,1
873,410,410,1
874,860,860,1
875,317,317,1
876,738,738,1
877,127,127,1
878,878,878,1
879,899,899,1
880,729,729,1
881,439,439,1
882,667,667,1
883,555,555,1
884,431,431,1
885,734,734,1
886,973,973,1
887,128,128,1
888,810,810,1
889,481,481,1
890,902,902,1
891,269,269,1
892,793,793,1
893,296,296,1
894,354,354,1
895,51,51,1
896,333,333,1
897,437,437,1
898,56,56,1
899,749,749,1
900,731,731,1
901,145,145,1
902,780,780,1
903,419,419,1
904,380,380,1
905,7,7,1
906,457,457,1
907,886,886,1
908,199,199,1
909,992,992,1
910,478,478,1
911,487,487,1
912,374,374,1
913,923,923,1
914,269,269,1
915,625,625,1
916,73,73,1
917,242,242,1
918,433,433,1
919,130,130,1
920,555,555,1
921,377,377,1
922,453,453,1
923,376,376,1
924,144,144,1
925,992,992,1
926,958,958,1
927,608,608,1
928,344,344,1
929,668,668,1
930,980,980,1
931,624,624,1
932,732,732,1
933,629,629,1
934,722,722,1
935,843,843,1
936,865,865,1
937,956,956,1
938,989,989,1
939,546,546,1
940,102,102,1
941,536,536,1
942,95,95,1
943,751,751,1
944,811,811,1
945,528,528,1
946,802,802,1
947,409,409,1
948,463,463,1
949,100,100,1
950,124,124,1
951,810,810,1
952,127,127,1
953,126,126,1
954,679,679,1
955,203,203,1
956,620,620,1
957,969,969,1
958,720,720,1
959,626,626,1
960,681,681,1
961,408,408,1
962,849,849,1
963,224,224,1
964,634,634,1
965,496,496,1
966,546,546,1
967,354,354,1
968,919,919,1
969,681,681,1
970,473,473,1
971,455,455,1
972,377,377,1
973,520,520,1
974,450,450,1
975,112,112,1
976,635,635,1
977,42,42,1
978,69,69,1
979,305,305,1
980,972,972,1
981,762,762,1
982,14,14,1
983,666,666,1
984,369,369,1
985,977,977,1
986,808,808,1
987,991,991,1
988,484,484,1
989,254,254,1
990,497,497,1
991,421,421,1
992,414,414,1
993,205,205,1
994,345,345,1
995,465,465,1
996,71,71,1
997,615,615,1
998,877,877,1
999,584,584,1
1000,600,600,1
